decision_x1=[0,4];
decision_x2=[0,4];
decision_x3=[0,4];
decision_x4=[0,4];
decision_x5=[0,4];
decision_x6=[0,4];
decision_x7=[0,4];
decision_x8=[0,4];
decision_x9=[0,4];
decision_x10=[0,4];
decision_x11=[0,4];
decision_x12=[0,4];
decision_x13=[0,4];
decision_x14=[0,4];
random_y1=[0,4];
random_y2=[0,4];
random_y3=[0,4];
random_y4=[0,4];
random_y5=[0,4];
random_y6=[0,4];
random_y7=[0,4];
constraint_x3_x2=[
0,1,2.4|
0,2,9.6|
0,3,2|
0,4,4.3|
1,0,7.9|
1,2,6.8|
1,3,5.4|
1,4,1.5|
2,0,0.85|
2,1,3.7|
2,3,7.6|
2,4,0.39|
3,0,2.7|
3,1,1.2|
3,2,4|
3,4,2.8|
4,0,9.5|
4,1,4|
4,2,8.6|
4,3,7.7|
];
constraint_x4_x2=[
0,1,0.29|
0,2,8.3|
0,3,6.9|
0,4,5.6|
1,0,4.3|
1,2,8.9|
1,3,7.9|
1,4,5.6|
2,0,0.28|
2,1,2.6|
2,3,5.7|
2,4,8.2|
3,0,7|
3,1,0.84|
3,2,3.5|
3,4,5.7|
4,0,8.6|
4,1,0.83|
4,2,7.5|
4,3,4|
];
constraint_x4_x3=[
0,1,3.1|
0,2,2.6|
0,3,5.8|
0,4,8.5|
1,0,9.4|
1,2,10|
1,3,5|
1,4,2.8|
2,0,2.9|
2,1,5|
2,3,5.1|
2,4,3.5|
3,0,6.4|
3,1,6.9|
3,2,4|
3,4,6.1|
4,0,2|
4,1,5.4|
4,2,7.6|
4,3,1.3|
];
constraint_x5_x4=[
0,1,2.4|
0,2,6.8|
0,3,5.6|
0,4,0.73|
1,0,8.4|
1,2,6.7|
1,3,0.71|
1,4,1.1|
2,0,0.39|
2,1,9.6|
2,3,1.2|
2,4,9.6|
3,0,4.4|
3,1,6.1|
3,2,3.9|
3,4,7.9|
4,0,9.8|
4,1,9.8|
4,2,0.21|
4,3,0.65|
];
constraint_x6_x1=[
0,1,3.6|
0,2,4.8|
0,3,4.4|
0,4,8.6|
1,0,3.9|
1,2,4.4|
1,3,2.5|
1,4,0.38|
2,0,6.7|
2,1,9.3|
2,3,3.5|
2,4,1.8|
3,0,1.3|
3,1,0.68|
3,2,7.7|
3,4,8.1|
4,0,3.2|
4,1,0.62|
4,2,5.3|
4,3,8.8|
];
constraint_x6_x2=[
0,1,0.21|
0,2,6.1|
0,3,4.5e-05|
0,4,4.3|
1,0,0.0052|
1,2,6.7|
1,3,1|
1,4,2.3|
2,0,3|
2,1,0.15|
2,3,0.8|
2,4,5.2|
3,0,7.8|
3,1,0.71|
3,2,5.7|
3,4,3.3|
4,0,8.8|
4,1,9.7|
4,2,0.22|
4,3,2.4|
];
constraint_x6_x5=[
0,1,6.4|
0,2,1.9|
0,3,9.2|
0,4,6.2|
1,0,4.1|
1,2,2.6|
1,3,8.8|
1,4,9.3|
2,0,3.1|
2,1,1.8|
2,3,5.2|
2,4,5.4|
3,0,6|
3,1,3.2|
3,2,6.9|
3,4,7.8|
4,0,6.3|
4,1,2.2|
4,2,5.5|
4,3,9.4|
];
constraint_x7_x2=[
0,1,4.4|
0,2,7.7|
0,3,9.3|
0,4,9.3|
1,0,2|
1,2,2.6|
1,3,8.6|
1,4,6.9|
2,0,7.2|
2,1,9.6|
2,3,0.43|
2,4,5|
3,0,3.6|
3,1,8.4|
3,2,0.72|
3,4,2.4|
4,0,7.6|
4,1,9.9|
4,2,0.77|
4,3,9.5|
];
constraint_x7_x3=[
0,1,2.8|
0,2,8.5|
0,3,6.1|
0,4,2.4|
1,0,2.3|
1,2,9.2|
1,3,9.7|
1,4,4.8|
2,0,4.3|
2,1,3.1|
2,3,0.04|
2,4,1.7|
3,0,3.6|
3,1,1.3|
3,2,4.8|
3,4,9.1|
4,0,9.3|
4,1,2.6|
4,2,0.42|
4,3,5.6|
];
constraint_x8_x1=[
0,1,1.2|
0,2,6.2|
0,3,8.9|
0,4,1.1|
1,0,1|
1,2,2.8|
1,3,6.2|
1,4,5.3|
2,0,8.7|
2,1,5.5|
2,3,5.5|
2,4,6.3|
3,0,8.4|
3,1,9.1|
3,2,6.1|
3,4,9.4|
4,0,3.2|
4,1,1.3|
4,2,6.5|
4,3,7.8|
];
constraint_x8_x3=[
0,1,1.8|
0,2,3.6|
0,3,5.9|
0,4,6.6|
1,0,6.2|
1,2,0.21|
1,3,2.1|
1,4,3.6|
2,0,4.8|
2,1,4.4|
2,3,4.7|
2,4,5.7|
3,0,0.27|
3,1,5.2|
3,2,3.3|
3,4,3.6|
4,0,7.5|
4,1,8.8|
4,2,6.6|
4,3,9.7|
];
constraint_x8_x4=[
0,1,6.2|
0,2,8.3|
0,3,4.5|
0,4,4.5|
1,0,3.2|
1,2,4.1|
1,3,2|
1,4,9.2|
2,0,0.054|
2,1,7.4|
2,3,7|
2,4,6.3|
3,0,4.5|
3,1,9.8|
3,2,9.7|
3,4,4|
4,0,4.8|
4,1,8.4|
4,2,4.7|
4,3,2.2|
];
constraint_x9_x2=[
0,1,2.8|
0,2,4.2|
0,3,3.6|
0,4,3.3|
1,0,6.4|
1,2,9|
1,3,1.2|
1,4,4.7|
2,0,4.8|
2,1,5.9|
2,3,4.1|
2,4,8.3|
3,0,7.9|
3,1,5.4|
3,2,5.2|
3,4,5.9|
4,0,2.9|
4,1,7.7|
4,2,1.5|
4,3,2.6|
];
constraint_x9_x3=[
0,1,7.1|
0,2,2.4|
0,3,5.4|
0,4,8.4|
1,0,2.9|
1,2,6.9|
1,3,8.7|
1,4,9.3|
2,0,6.2|
2,1,3.1|
2,3,2.6|
2,4,8.7|
3,0,8.2|
3,1,9.9|
3,2,9.2|
3,4,9.4|
4,0,7.7|
4,1,1.9|
4,2,8.2|
4,3,7|
];
constraint_x9_x5=[
0,1,9.5|
0,2,9.9|
0,3,6.6|
0,4,0.15|
1,0,7.3|
1,2,9.8|
1,3,4.4|
1,4,4.5|
2,0,5.4|
2,1,8.3|
2,3,2.5|
2,4,5|
3,0,2.1|
3,1,9.8|
3,2,9.2|
3,4,3.3|
4,0,3.9|
4,1,9.6|
4,2,8.4|
4,3,1.1|
];
constraint_x9_x6=[
0,1,4.8|
0,2,1|
0,3,8.1|
0,4,4.7|
1,0,8.6|
1,2,1.1|
1,3,2.3|
1,4,9.9|
2,0,7.5|
2,1,4.8|
2,3,1.6|
2,4,9.1|
3,0,9.6|
3,1,4.7|
3,2,3.6|
3,4,2.5|
4,0,8|
4,1,2.4|
4,2,3.9|
4,3,3.3|
];
constraint_x9_x7=[
0,1,4.9|
0,2,3|
0,3,3.4|
0,4,0.77|
1,0,2.7|
1,2,5.5|
1,3,6.5|
1,4,6.9|
2,0,1.2|
2,1,3.2|
2,3,6.2|
2,4,3.4|
3,0,6|
3,1,0.52|
3,2,1.1|
3,4,9.4|
4,0,0.26|
4,1,2.4|
4,2,6.3|
4,3,9.5|
];
constraint_x10_x1=[
0,1,7.1|
0,2,1.7|
0,3,2.2|
0,4,6.5|
1,0,2.6|
1,2,7.6|
1,3,7.4|
1,4,3.2|
2,0,1.3|
2,1,6|
2,3,4.2|
2,4,7.6|
3,0,6.6|
3,1,2.2|
3,2,9.7|
3,4,7.3|
4,0,9.1|
4,1,5.8|
4,2,4.6|
4,3,7.5|
];
constraint_x10_x2=[
0,1,9.5|
0,2,6.3|
0,3,0.33|
0,4,1.3|
1,0,1.6|
1,2,8.1|
1,3,4.3|
1,4,1.7|
2,0,3.2|
2,1,4.6|
2,3,0.35|
2,4,4.9|
3,0,1.6|
3,1,7.6|
3,2,3.5|
3,4,7.4|
4,0,4.6|
4,1,8.6|
4,2,1.2|
4,3,3.9|
];
constraint_x10_x5=[
0,1,0.74|
0,2,7.9|
0,3,1.8|
0,4,5.3|
1,0,0.65|
1,2,6.8|
1,3,4.4|
1,4,6.9|
2,0,2.6|
2,1,7.6|
2,3,2.6|
2,4,7.1|
3,0,5.1|
3,1,9.1|
3,2,9.4|
3,4,7.4|
4,0,8.4|
4,1,3.2|
4,2,9.9|
4,3,5.1|
];
constraint_x10_x8=[
0,1,2|
0,2,2.8|
0,3,8.7|
0,4,6.4|
1,0,4.8|
1,2,1.5|
1,3,8.4|
1,4,1.3|
2,0,0.52|
2,1,6.4|
2,3,6.9|
2,4,9.6|
3,0,7.3|
3,1,0.016|
3,2,6.6|
3,4,9.5|
4,0,5.7|
4,1,5.8|
4,2,2.1|
4,3,0.97|
];
constraint_x10_x9=[
0,1,3.2|
0,2,8|
0,3,4.9|
0,4,8.5|
1,0,2.7|
1,2,8.7|
1,3,5.2|
1,4,9.4|
2,0,5.5|
2,1,8.9|
2,3,5.1|
2,4,7.6|
3,0,4.7|
3,1,8.2|
3,2,3.8|
3,4,8.2|
4,0,6.5|
4,1,6.1|
4,2,7.3|
4,3,3.7|
];
constraint_x11_x1=[
0,1,3|
0,2,3.1|
0,3,9.9|
0,4,8.7|
1,0,2.8|
1,2,0.43|
1,3,3.1|
1,4,9.2|
2,0,3.2|
2,1,9.2|
2,3,6.1|
2,4,6.6|
3,0,8.3|
3,1,7.9|
3,2,4.8|
3,4,2.3|
4,0,5.2|
4,1,9.1|
4,2,5|
4,3,6.4|
];
constraint_x11_x4=[
0,1,4.6|
0,2,8.4|
0,3,6.1|
0,4,2.8|
1,0,7|
1,2,3.9|
1,3,7.8|
1,4,5.6|
2,0,6.7|
2,1,2.3|
2,3,9.5|
2,4,4|
3,0,4.1|
3,1,0.28|
3,2,7.1|
3,4,9.1|
4,0,4|
4,1,1|
4,2,4|
4,3,2.3|
];
constraint_x11_x5=[
0,1,1.9|
0,2,3.5|
0,3,3.2|
0,4,5|
1,0,1.3|
1,2,2.6|
1,3,1.4|
1,4,7.5|
2,0,5.3|
2,1,3.5|
2,3,6|
2,4,7.5|
3,0,5.7|
3,1,6.2|
3,2,7.6|
3,4,1.9|
4,0,1.8|
4,1,2.3|
4,2,9.4|
4,3,3.9|
];
constraint_x11_x6=[
0,1,7.8|
0,2,7.5|
0,3,6.7|
0,4,2.6|
1,0,3.7|
1,2,3|
1,3,1.5|
1,4,1.9|
2,0,6.2|
2,1,5.2|
2,3,8.5|
2,4,3.3|
3,0,7.4|
3,1,1.8|
3,2,0.084|
3,4,5|
4,0,8.7|
4,1,0.27|
4,2,8.6|
4,3,9.6|
];
constraint_x11_x8=[
0,1,4|
0,2,4.5|
0,3,7.3|
0,4,2.5|
1,0,3.9|
1,2,3.4|
1,3,8.9|
1,4,3.9|
2,0,2.7|
2,1,9.1|
2,3,9.8|
2,4,9.2|
3,0,9.3|
3,1,6.8|
3,2,7.2|
3,4,2.5|
4,0,4.3|
4,1,9.7|
4,2,3|
4,3,6.2|
];
constraint_x12_x2=[
0,1,5.5|
0,2,6.3|
0,3,2.5|
0,4,3.3|
1,0,6.3|
1,2,7|
1,3,4.8|
1,4,3.6|
2,0,7.9|
2,1,0.43|
2,3,5.2|
2,4,2.7|
3,0,9.1|
3,1,9.4|
3,2,6.3|
3,4,8.1|
4,0,5.9|
4,1,4.8|
4,2,3.3|
4,3,8.2|
];
constraint_x12_x4=[
0,1,3|
0,2,8|
0,3,0.7|
0,4,9.5|
1,0,0.088|
1,2,0.41|
1,3,3.3|
1,4,0.027|
2,0,0.74|
2,1,5.5|
2,3,5.1|
2,4,0.31|
3,0,5.8|
3,1,9|
3,2,1.7|
3,4,4|
4,0,8.1|
4,1,6.5|
4,2,4.6|
4,3,2.9|
];
constraint_x12_x6=[
0,1,5.6|
0,2,5|
0,3,3.3|
0,4,6.8|
1,0,5|
1,2,3.2|
1,3,1.7|
1,4,0.84|
2,0,7.4|
2,1,8.1|
2,3,9.7|
2,4,1.8|
3,0,3.6|
3,1,4.6|
3,2,9.1|
3,4,6.9|
4,0,9|
4,1,6.2|
4,2,1.5|
4,3,9.1|
];
constraint_x12_x7=[
0,1,8.9|
0,2,5.8|
0,3,9.4|
0,4,2.8|
1,0,3.4|
1,2,9|
1,3,6.2|
1,4,6.8|
2,0,2.6|
2,1,4|
2,3,4|
2,4,5.6|
3,0,6.1|
3,1,4.8|
3,2,1.1|
3,4,6.1|
4,0,6.2|
4,1,9.6|
4,2,5.7|
4,3,2.4|
];
constraint_x12_x10=[
0,1,0.4|
0,2,5.7|
0,3,6|
0,4,8.7|
1,0,6.4|
1,2,3.8|
1,3,7.5|
1,4,3.7|
2,0,8.4|
2,1,5.7|
2,3,8.8|
2,4,3.5|
3,0,1.5|
3,1,2.9|
3,2,5|
3,4,0.16|
4,0,1.5|
4,1,0.94|
4,2,7.2|
4,3,5.4|
];
constraint_x12_x11=[
0,1,2.4|
0,2,2.8|
0,3,8.6|
0,4,2.5|
1,0,5.7|
1,2,0.94|
1,3,3.1|
1,4,5.1|
2,0,5.7|
2,1,2.8|
2,3,7.4|
2,4,4.5|
3,0,5.4|
3,1,9.4|
3,2,8.1|
3,4,4.9|
4,0,3|
4,1,6.8|
4,2,5.9|
4,3,9.5|
];
constraint_x13_x1=[
0,1,3.8|
0,2,4.8|
0,3,4.9|
0,4,2.8|
1,0,3.2|
1,2,4.8|
1,3,3.3|
1,4,4.7|
2,0,1.4|
2,1,9.1|
2,3,6.4|
2,4,4|
3,0,8.7|
3,1,6.6|
3,2,0.4|
3,4,6.9|
4,0,5.1|
4,1,7.8|
4,2,1.5|
4,3,2.1|
];
constraint_x13_x4=[
0,1,2.6|
0,2,9.8|
0,3,1.4|
0,4,0.53|
1,0,5.3|
1,2,7.4|
1,3,9.9|
1,4,0.36|
2,0,4|
2,1,4.3|
2,3,5|
2,4,0.049|
3,0,1.1|
3,1,1.1|
3,2,2.3|
3,4,4.4|
4,0,5.6|
4,1,1.1|
4,2,0.29|
4,3,4.5|
];
constraint_x13_x5=[
0,1,7.4|
0,2,7.7|
0,3,7.9|
0,4,8.7|
1,0,1.6|
1,2,1.7|
1,3,2|
1,4,6.5|
2,0,5|
2,1,0.94|
2,3,7.3|
2,4,4|
3,0,0.65|
3,1,4.9|
3,2,9.8|
3,4,5.5|
4,0,5.7|
4,1,4.2|
4,2,3.1|
4,3,9.1|
];
constraint_x13_x6=[
0,1,7.7|
0,2,6.9|
0,3,8.4|
0,4,7.2|
1,0,1.4|
1,2,2.5|
1,3,5.5|
1,4,4.7|
2,0,6.9|
2,1,9.3|
2,3,1.7|
2,4,9.8|
3,0,9.6|
3,1,1.5|
3,2,1.2|
3,4,0.42|
4,0,1.1|
4,1,8.2|
4,2,0.26|
4,3,0.3|
];
constraint_x13_x7=[
0,1,1.1|
0,2,4|
0,3,6.1|
0,4,9.5|
1,0,5.6|
1,2,5.8|
1,3,5.8|
1,4,6.1|
2,0,3.4|
2,1,1.8|
2,3,4.5|
2,4,4.8|
3,0,7.9|
3,1,9.6|
3,2,7.8|
3,4,1.2|
4,0,9.7|
4,1,4.6|
4,2,5.1|
4,3,4.1|
];
constraint_x13_x12=[
0,1,3.2|
0,2,0.6|
0,3,6.7|
0,4,6.4|
1,0,5.2|
1,2,5.5|
1,3,7.9|
1,4,7.2|
2,0,7.8|
2,1,0.068|
2,3,0.095|
2,4,1.2|
3,0,3.4|
3,1,8|
3,2,0.57|
3,4,9.8|
4,0,6.4|
4,1,7.7|
4,2,6.2|
4,3,1.6|
];
constraint_x14_x1=[
0,1,2.1|
0,2,0.36|
0,3,4.9|
0,4,7.2|
1,0,0.24|
1,2,6.1|
1,3,2.2|
1,4,2.6|
2,0,6.5|
2,1,1.9|
2,3,3.4|
2,4,0.62|
3,0,6.4|
3,1,7.1|
3,2,9.2|
3,4,0.91|
4,0,6.5|
4,1,7.3|
4,2,9.5|
4,3,5.3|
];
constraint_x14_x2=[
0,1,0.39|
0,2,8.5|
0,3,5.5|
0,4,2|
1,0,4.5|
1,2,4.4|
1,3,4.8|
1,4,6.9|
2,0,1.4|
2,1,7.9|
2,3,4.6|
2,4,4.6|
3,0,5.4|
3,1,7|
3,2,0.45|
3,4,3.1|
4,0,6.5|
4,1,8.6|
4,2,4.8|
4,3,2.4|
];
constraint_x14_x5=[
0,1,8.2|
0,2,5.8|
0,3,7.6|
0,4,7.5|
1,0,5.6|
1,2,1|
1,3,6.4|
1,4,7.3|
2,0,9.2|
2,1,6.3|
2,3,9.1|
2,4,3.3|
3,0,5|
3,1,2.2|
3,2,4.2|
3,4,3.6|
4,0,3.4|
4,1,3.1|
4,2,4.1|
4,3,8.1|
];
constraint_x14_x7=[
0,1,7.4|
0,2,5.4|
0,3,6|
0,4,8.2|
1,0,0.64|
1,2,2.3|
1,3,5.3|
1,4,1.2|
2,0,7.5|
2,1,9|
2,3,6.1|
2,4,4.4|
3,0,8.3|
3,1,5.7|
3,2,9.5|
3,4,9.7|
4,0,5.2|
4,1,5.5|
4,2,4.6|
4,3,7.5|
];
constraint_x14_x9=[
0,1,1.5|
0,2,2.9|
0,3,2.2|
0,4,4|
1,0,2|
1,2,3|
1,3,4.8|
1,4,4.6|
2,0,8.9|
2,1,2.5|
2,3,6.9|
2,4,8.3|
3,0,6.9|
3,1,2.3|
3,2,3.6|
3,4,2.6|
4,0,8.2|
4,1,7.7|
4,2,7|
4,3,4.8|
];
constraint_x14_x10=[
0,1,5.3|
0,2,3|
0,3,2.7|
0,4,6.7|
1,0,4.4|
1,2,9.8|
1,3,3.7|
1,4,8.7|
2,0,7.8|
2,1,3.5|
2,3,3.1|
2,4,3.2|
3,0,6.5|
3,1,2.5|
3,2,6.6|
3,4,7.9|
4,0,5|
4,1,2.7|
4,2,9.4|
4,3,8.5|
];
constraint_x14_x11=[
0,1,3.1|
0,2,8.7|
0,3,7.3|
0,4,8.2|
1,0,3.5|
1,2,2.1|
1,3,5.9|
1,4,2.7|
2,0,6.5|
2,1,2.7|
2,3,1.4|
2,4,2.7|
3,0,9.1|
3,1,6.6|
3,2,3.5|
3,4,3.5|
4,0,6.3|
4,1,2.3|
4,2,8.4|
4,3,8.5|
];
constraint_x1_y1=[
0,0,7.7|
0,1,2|
0,2,9.4|
0,3,0.53|
0,4,2.8|
1,0,8.7|
1,1,4.9|
1,2,0.29|
1,3,1.8|
1,4,8.8|
2,0,0.91|
2,1,9.7|
2,2,4.5|
2,3,4.7|
2,4,0.53|
3,0,4.3|
3,1,5.9|
3,2,2.1|
3,3,1.5|
3,4,1.5|
4,0,8.7|
4,1,7.7|
4,2,3.1|
4,3,9.6|
4,4,4.5|
];
constraint_x2_y2=[
0,0,8.8|
0,1,9|
0,2,1.7|
0,3,3.1|
0,4,6.3|
1,0,2|
1,1,7.8|
1,2,0.35|
1,3,1.2|
1,4,6.5|
2,0,5.9|
2,1,9.5|
2,2,9.1|
2,3,5.6|
2,4,4.3|
3,0,5.4|
3,1,2.1|
3,2,2.2|
3,3,0.47|
3,4,3.6|
4,0,10|
4,1,0.26|
4,2,7.8|
4,3,7.2|
4,4,6.6|
];
constraint_x3_y3=[
0,0,2.1|
0,1,6.1|
0,2,1.9|
0,3,5.9|
0,4,2.9|
1,0,8.3|
1,1,1.6|
1,2,8.2|
1,3,2.8|
1,4,2.6|
2,0,0.14|
2,1,2.2|
2,2,5.9|
2,3,5.5|
2,4,0.65|
3,0,4.2|
3,1,1.6|
3,2,6.2|
3,3,7.7|
3,4,7.4|
4,0,7.8|
4,1,2.9|
4,2,2.1|
4,3,4.2|
4,4,9|
];
constraint_x4_y4=[
0,0,6|
0,1,2.9|
0,2,2.7|
0,3,4|
0,4,2.2|
1,0,2|
1,1,1.3|
1,2,2.1|
1,3,7.8|
1,4,9.6|
2,0,6|
2,1,8.7|
2,2,4.6|
2,3,6.2|
2,4,2.9|
3,0,4|
3,1,1.6|
3,2,2.3|
3,3,4.7|
3,4,2.7|
4,0,2.9|
4,1,8.5|
4,2,5.5|
4,3,9.9|
4,4,5.7|
];
constraint_x5_y5=[
0,0,0.14|
0,1,5.3|
0,2,3|
0,3,5.1|
0,4,4|
1,0,6.3|
1,1,5.4|
1,2,8.6|
1,3,6.1|
1,4,9.8|
2,0,5.5|
2,1,6.5|
2,2,9.6|
2,3,7.1|
2,4,2.3|
3,0,2.7|
3,1,6.1|
3,2,7.8|
3,3,5.4|
3,4,2.6|
4,0,9.4|
4,1,1.4|
4,2,6.2|
4,3,5.3|
4,4,1.7|
];
constraint_x6_y6=[
0,0,2.9|
0,1,5.5|
0,2,0.59|
0,3,4|
0,4,9.9|
1,0,6.8|
1,1,4.4|
1,2,5|
1,3,1|
1,4,5.4|
2,0,7.3|
2,1,1.3|
2,2,9.2|
2,3,1.1|
2,4,7.5|
3,0,8.8|
3,1,1.7|
3,2,0.36|
3,3,8.2|
3,4,7.8|
4,0,3.7|
4,1,0.46|
4,2,1.3|
4,3,0.49|
4,4,0.64|
];
constraint_x7_y7=[
0,0,9.1|
0,1,7|
0,2,8.1|
0,3,3.5|
0,4,5.3|
1,0,7.2|
1,1,4.7|
1,2,0.66|
1,3,9|
1,4,8.9|
2,0,8.4|
2,1,7.4|
2,2,2.7|
2,3,7.4|
2,4,3.9|
3,0,5.3|
3,1,6.5|
3,2,7.9|
3,3,2.9|
3,4,8.6|
4,0,4.9|
4,1,5.4|
4,2,3.6|
4,3,8.8|
4,4,3|
];
initial_distribution_y1=[0.32,0.0085,0.14,0.18,0.35];
initial_distribution_y2=[0.062,0.31,0.042,0.32,0.26];
initial_distribution_y3=[0.35,0.22,0.19,0.15,0.088];
initial_distribution_y4=[0.27,0.12,0.31,0.0052,0.29];
initial_distribution_y5=[0.32,0.16,0.015,0.19,0.31];
initial_distribution_y6=[0.4,0.28,0.092,0.23,0.0078];
initial_distribution_y7=[0.13,0.3,0.24,0.14,0.19];
transition_y1=[
0.037,0.46,0.27,0.18,0.056|
0.23,0.17,0.2,0.29,0.11|
0.28,0.23,0.032,0.35,0.11|
0.26,0.12,0.33,0.036,0.25|
0.14,0.14,0.23,0.19,0.3|
];
transition_y2=[
0.11,0.12,0.61,0.04,0.11|
0.091,0.4,0.24,0.15,0.12|
0.19,0.17,0.19,0.24,0.22|
0.3,0.17,0.19,0.11,0.24|
0.3,0.29,0.18,0.11,0.12|
];
transition_y3=[
0.41,0.11,0.4,0.049,0.033|
0.17,0.095,0.33,0.071,0.33|
0.49,0.0092,0.21,0.11,0.18|
0.3,0.12,0.38,0.15,0.055|
0.24,0.085,0.1,0.23,0.34|
];
transition_y4=[
0.28,0.052,0.45,0.2,0.014|
0.3,0.083,0.078,0.39,0.15|
0.087,0.018,0.11,0.57,0.21|
0.32,0.01,0.48,0.11,0.074|
0.17,0.36,0.19,0.21,0.063|
];
transition_y5=[
0.26,0.097,0.088,0.25,0.3|
0.055,0.11,0.32,0.21,0.31|
0.034,0.34,0.19,0.16,0.28|
0.071,0.069,0.37,0.2,0.3|
0.15,0.23,0.33,0.051,0.24|
];
transition_y6=[
0.097,0.19,0.17,0.087,0.46|
0.068,0.27,0.34,0.019,0.3|
0.19,0.3,0.28,0.12,0.11|
0.14,0.28,0.15,0.17,0.26|
0.17,0.23,0.21,0.17,0.22|
];
transition_y7=[
0.23,0.26,0.12,0.0092,0.38|
0.068,0.3,0.31,0.19,0.13|
0.36,0.24,0.24,0.036,0.13|
0.31,0.16,0.043,0.3,0.19|
0.53,0.15,0.029,0.053,0.24|
];
